214621.0	-5250.0	136940	116	86	4	4
192513.0	-4500.0	132400	87	68	1	5
201452.0	-4875.0	127963	46	79	5	4
227899.0	-5625.0	138782	176	87	5	4
232020.0	-5700.0	138226	158	133	6	5
234542.0	-6000.0	146561	205	106	4	5
